(set-option :produce-models true)
(set-logic AUFLIRA)
; ### Variable declarations ###
(declare-const i_0_0 Real)
(declare-const i_0_1 Real)
(declare-const i_0_2 Real)
(declare-const i_0_3 Real)
(declare-const i_0_4 Real)
(declare-const i_0_5 Real)
(declare-const i_0_6 Real)
(declare-const i_0_7 Real)
(declare-const i_0_8 Real)
(declare-const x_0_0 Real)
(declare-const x_0_1 Real)
(declare-const x_0_2 Real)
(declare-const x_0_3 Real)
(declare-const x_0_4 Real)
(declare-const x_0_5 Real)
(declare-const x_0_6 Real)
(declare-const x_0_7 Real)
(declare-const o_8_0 Real)
(declare-const o_8_1 Real)
(declare-const o_8_2 Real)
(declare-const o_8_3 Real)
(declare-const o_8_4 Real)
(declare-const o_8_5 Real)
(declare-const o_8_6 Real)
(declare-const o_8_7 Real)
(declare-const d_8_0 Int)
(declare-const d_8_1 Int)
(declare-const d_8_2 Int)
(declare-const d_8_3 Int)
(declare-const d_8_4 Int)
(declare-const d_8_5 Int)
(declare-const d_8_6 Int)
(declare-const d_8_7 Int)
(declare-const x_1_0 Real)
(declare-const x_1_1 Real)
(declare-const x_1_2 Real)
(declare-const x_1_3 Real)
(declare-const o_4_0 Real)
(declare-const o_4_1 Real)
(declare-const o_4_2 Real)
(declare-const o_4_3 Real)
(declare-const d_4_0 Int)
(declare-const d_4_1 Int)
(declare-const d_4_2 Int)
(declare-const d_4_3 Int)
; bland chromation >= 8
(declare-const x_2_0 Real)
; ### Variable bounds ###
(assert (<= i_0_0 10.))
(assert (<= 1. i_0_0))
(assert (<= i_0_1 10.))
(assert (<= 1. i_0_1))
(assert (<= i_0_2 10.))
(assert (<= 1. i_0_2))
(assert (<= i_0_3 10.))
(assert (<= 1. i_0_3))
(assert (<= i_0_4 10.))
(assert (<= 1. i_0_4))
(assert (<= i_0_5 10.))
(assert (<= 1. i_0_5))
(assert (<= i_0_6 10.))
(assert (<= 8. i_0_6))
(assert (<= i_0_7 10.))
(assert (<= 1. i_0_7))
(assert (<= i_0_8 10.))
(assert (<= 1. i_0_8))
(assert (<= d_8_0 1.))
(assert (<= 0. d_8_0))
(assert (<= d_8_1 1.))
(assert (<= 0. d_8_1))
(assert (<= d_8_2 1.))
(assert (<= 0. d_8_2))
(assert (<= d_8_3 1.))
(assert (<= 1. d_8_3))
(assert (<= d_8_4 1.))
(assert (<= 0. d_8_4))
(assert (<= d_8_5 1.))
(assert (<= 0. d_8_5))
(assert (<= d_8_6 1.))
(assert (<= 1. d_8_6))
(assert (<= d_8_7 1.))
(assert (<= 0. d_8_7))
(assert (<= d_4_0 1.))
(assert (<= 0. d_4_0))
(assert (<= d_4_1 1.))
(assert (<= 0. d_4_1))
(assert (<= d_4_2 1.))
(assert (<= 0. d_4_2))
(assert (<= d_4_3 1.))
(assert (<= 0. d_4_3))
; ### Constraints ###
(assert (= x_0_0 (+ (* 0.28554273 i_0_0) (* 0.33106732 i_0_1) (* -0.14496158 i_0_2) (* 0.5133601 i_0_3) (* 0.4657508 i_0_4) (* 0.07349093 i_0_5) (* 0.4102551 i_0_6) (* -0.51293314 i_0_7) (* -0.9745002 i_0_8) -0.03258363)))
(assert (= x_0_1 (+ (* 0.2338463 i_0_0) (* -0.0637325 i_0_1) (* 0.03603077 i_0_2) (* 0.23512027 i_0_3) (* -0.26861545 i_0_4) (* -0.6745251 i_0_5) (* 0.17512736 i_0_6) (* -0.24455275 i_0_7) (* 0.12347493 i_0_8) 1.2563494)))
(assert (= x_0_2 (+ (* -0.077738024 i_0_0) (* 0.58989877 i_0_1) (* -0.033120904 i_0_2) (* 0.23174655 i_0_3) (* 0.22060438 i_0_4) (* -0.7922396 i_0_5) (* 0.16734354 i_0_6) (* -0.22544822 i_0_7) (* -0.43025586 i_0_8) -0.69002724)))
(assert (= x_0_3 (+ (* 0.33228374 i_0_0) (* 0.38425958 i_0_1) (* 0.73499334 i_0_2) (* 0.64719456 i_0_3) (* -0.29741332 i_0_4) (* 0.26361117 i_0_5) (* 0.61812407 i_0_6) (* 0.5953611 i_0_7) (* 0.024499958 i_0_8) -0.95013106)))
(assert (= x_0_4 (+ (* 0.11631638 i_0_0) (* -0.2811069 i_0_1) (* -0.23719452 i_0_2) (* 0.36142236 i_0_3) (* 0.46475556 i_0_4) (* -0.44131514 i_0_5) (* 0.31052703 i_0_6) (* -0.4659521 i_0_7) (* -0.27754384 i_0_8) 1.617898)))
(assert (= x_0_5 (+ (* -0.5523717 i_0_0) (* 0.2945845 i_0_1) (* 0.1362918 i_0_2) (* -0.23119247 i_0_3) (* -0.37670034 i_0_4) (* -0.35688466 i_0_5) (* 0.06566453 i_0_6) (* -0.025532484 i_0_7) (* -0.010333478 i_0_8) 0.)))
(assert (= x_0_6 (+ (* 0.0073656845 i_0_0) (* 0.35165268 i_0_1) (* 0.27044135 i_0_2) (* 0.5009753 i_0_3) (* 0.06335329 i_0_4) (* -0.14281617 i_0_5) (* 0.34603694 i_0_6) (* 0.15840204 i_0_7) (* 0.38872486 i_0_8) -1.4793752)))
(assert (= x_0_7 (+ (* -0.47986597 i_0_0) (* 0.2555187 i_0_1) (* 0.20981242 i_0_2) (* 0.37448972 i_0_3) (* 0.20279677 i_0_4) (* -0.14754769 i_0_5) (* 0.034676097 i_0_6) (* 0.2216882 i_0_7) (* 0.13430631 i_0_8) 1.0079775)))
(assert (<= 0 o_8_0))
(assert (<= x_0_0 o_8_0))
(assert (<= (+ x_0_0 (- (* 19.129691310226917 d_8_0))) 0))
(assert (<= 0 (+ x_0_0 19.129691310226917 (- (* 19.129691310226917 d_8_0)))))
(assert (<= o_8_0 (+ x_0_0 19.129691310226917 (- (* 19.129691310226917 d_8_0)))))
(assert (<= o_8_0 (* 19.129691310226917 d_8_0)))
(assert (<= 0 o_8_1))
(assert (<= x_0_1 o_8_1))
(assert (<= (+ x_0_1 (- (* 9.228417225182056 d_8_1))) 0))
(assert (<= 0 (+ x_0_1 9.228417225182056 (- (* 9.228417225182056 d_8_1)))))
(assert (<= o_8_1 (+ x_0_1 9.228417225182056 (- (* 9.228417225182056 d_8_1)))))
(assert (<= o_8_1 (* 9.228417225182056 d_8_1)))
(assert (<= 0 o_8_2))
(assert (<= x_0_2 o_8_2))
(assert (<= (+ x_0_2 (- (* 13.897055365145206 d_8_2))) 0))
(assert (<= 0 (+ x_0_2 13.897055365145206 (- (* 13.897055365145206 d_8_2)))))
(assert (<= o_8_2 (+ x_0_2 13.897055365145206 (- (* 13.897055365145206 d_8_2)))))
(assert (<= o_8_2 (* 13.897055365145206 d_8_2)))
(assert (<= 0 o_8_3))
(assert (<= x_0_3 o_8_3))
(assert (<= (+ x_0_3 (- (* 34.755730893462896 d_8_3))) 0))
(assert (<= 0 (+ x_0_3 34.755730893462896 (- (* 34.755730893462896 d_8_3)))))
(assert (<= o_8_3 (+ x_0_3 34.755730893462896 (- (* 34.755730893462896 d_8_3)))))
(assert (<= o_8_3 (* 34.755730893462896 d_8_3)))
(assert (<= 0 o_8_4))
(assert (<= x_0_4 o_8_4))
(assert (<= (+ x_0_4 (- (* 12.444998785853386 d_8_4))) 0))
(assert (<= 0 (+ x_0_4 12.444998785853386 (- (* 12.444998785853386 d_8_4)))))
(assert (<= o_8_4 (+ x_0_4 12.444998785853386 (- (* 12.444998785853386 d_8_4)))))
(assert (<= o_8_4 (* 12.444998785853386 d_8_4)))
(assert (<= 0 o_8_5))
(assert (<= x_0_5 o_8_5))
(assert (<= (+ x_0_5 (- (* 14.573958575725555 d_8_5))) 0))
(assert (<= 0 (+ x_0_5 14.573958575725555 (- (* 14.573958575725555 d_8_5)))))
(assert (<= o_8_5 (+ x_0_5 14.573958575725555 (- (* 14.573958575725555 d_8_5)))))
(assert (<= o_8_5 (* 14.573958575725555 d_8_5)))
(assert (<= 0 o_8_6))
(assert (<= x_0_6 o_8_6))
(assert (<= (+ x_0_6 (- (* 19.247330266050994 d_8_6))) 0))
(assert (<= 0 (+ x_0_6 19.247330266050994 (- (* 19.247330266050994 d_8_6)))))
(assert (<= o_8_6 (+ x_0_6 19.247330266050994 (- (* 19.247330266050994 d_8_6)))))
(assert (<= o_8_6 (* 19.247330266050994 d_8_6)))
(assert (<= 0 o_8_7))
(assert (<= x_0_7 o_8_7))
(assert (<= (+ x_0_7 (- (* 14.7134460657835 d_8_7))) 0))
(assert (<= 0 (+ x_0_7 14.7134460657835 (- (* 14.7134460657835 d_8_7)))))
(assert (<= o_8_7 (+ x_0_7 14.7134460657835 (- (* 14.7134460657835 d_8_7)))))
(assert (<= o_8_7 (* 14.7134460657835 d_8_7)))
(assert (= x_1_0 (+ (* 0.27417973 o_8_0) (* -0.18305872 o_8_1) (* 0.9825025 o_8_2) (* 0.38555616 o_8_3) (* -0.05910888 o_8_4) (* 0.38422292 o_8_5) (* -0.7820585 o_8_6) (* -0.22873813 o_8_7) -1.3007615)))
(assert (= x_1_1 (+ (* 0.19803874 o_8_0) (* -0.7561937 o_8_1) (* 0.7953442 o_8_2) (* 0.40060204 o_8_3) (* -0.24452573 o_8_4) (* -0.15677714 o_8_5) (* 0.8767861 o_8_6) (* -0.6475772 o_8_7) -1.3368317)))
(assert (= x_1_2 (+ (* 0.8763363 o_8_0) (* 0.7860879 o_8_1) (* 0.0008944098 o_8_2) (* 0.13041656 o_8_3) (* 1.2416682 o_8_4) (* 0.62704223 o_8_5) (* 0.047622643 o_8_6) (* 0.69115686 o_8_7) 2.3754647)))
(assert (= x_1_3 (+ (* 0.6234212 o_8_0) (* -1.1121054 o_8_1) (* 0.42380518 o_8_2) (* -0.012075965 o_8_3) (* 0.37224576 o_8_4) (* 0.3657053 o_8_5) (* 0.029862834 o_8_6) (* -0.741023 o_8_7) -0.66664773)))
(assert (<= 0 o_4_0))
(assert (<= x_1_0 o_4_0))
(assert (<= (+ x_1_0 (- (* 42.76367830031932 d_4_0))) 0))
(assert (<= 0 (+ x_1_0 42.76367830031932 (- (* 42.76367830031932 d_4_0)))))
(assert (<= o_4_0 (+ x_1_0 42.76367830031932 (- (* 42.76367830031932 d_4_0)))))
(assert (<= o_4_0 (* 42.76367830031932 d_4_0)))
(assert (<= 0 o_4_1))
(assert (<= x_1_1 o_4_1))
(assert (<= (+ x_1_1 (- (* 55.60167058187202 d_4_1))) 0))
(assert (<= 0 (+ x_1_1 55.60167058187202 (- (* 55.60167058187202 d_4_1)))))
(assert (<= o_4_1 (+ x_1_1 55.60167058187202 (- (* 55.60167058187202 d_4_1)))))
(assert (<= o_4_1 (* 55.60167058187202 d_4_1)))
(assert (<= 0 o_4_2))
(assert (<= x_1_2 o_4_2))
(assert (<= (+ x_1_2 (- (* 58.68008919212135 d_4_2))) 0))
(assert (<= 0 (+ x_1_2 58.68008919212135 (- (* 58.68008919212135 d_4_2)))))
(assert (<= o_4_2 (+ x_1_2 58.68008919212135 (- (* 58.68008919212135 d_4_2)))))
(assert (<= o_4_2 (* 58.68008919212135 d_4_2)))
(assert (<= 0 o_4_3))
(assert (<= x_1_3 o_4_3))
(assert (<= (+ x_1_3 (- (* 43.67551968356689 d_4_3))) 0))
(assert (<= 0 (+ x_1_3 43.67551968356689 (- (* 43.67551968356689 d_4_3)))))
(assert (<= o_4_3 (+ x_1_3 43.67551968356689 (- (* 43.67551968356689 d_4_3)))))
(assert (<= o_4_3 (* 43.67551968356689 d_4_3)))
(assert (= x_2_0 (+ (* 1.1813823 o_4_0) (* 1.9052324 o_4_1) (* -0.77148676 o_4_2) (* 1.1288352 o_4_3) -2.4088814)))
; manually added condition
(assert (<= x_2_0 0))
(check-sat)
(get-model)